db/data/31362284762134232461398711473218627210.z3.out
-------------------
2500.251546235
